benchmark/results/graph__10-1000-0.10-02_17/error_log/graph__10-1000-0.10-02_17_Quinton_Benders_master_ERRORLOG.lp
\ This file has been generated by DOcplex
\ ENCODING=ISO-8859-1
\Problem name: Quinton Benders_master

Maximize
 obj: z
Subject To
 c1: m_a0_proc_0 = 1
 c2: m_a1_proc_0 + m_a1_proc_1 = 1
 c3: m_a2_proc_0 = 1
 c4: m_a3_proc_1 = 1
 c5: m_a4_proc_0 + m_a4_proc_1 = 1
 c6: m_a5_proc_0 + m_a5_proc_1 = 1
 c7: m_a6_proc_0 + m_a6_proc_1 = 1
 c8: m_a7_proc_1 = 1
 c9: m_a8_proc_0 + m_a8_proc_1 = 1
 c10: m_a9_proc_0 + m_a9_proc_1 = 1
 c11: K_a0_a1 + K_a1_a0 = 1
 c12: K_a0_a1 + K_a1_a0 = 1
 c13: K_a0_a2 + K_a2_a0 = 1
 c14: K_a0_a2 + K_a2_a0 = 1
 c15: K_a0_a4 + K_a4_a0 = 1
 c16: K_a0_a4 + K_a4_a0 = 1
 c17: K_a0_a5 + K_a5_a0 = 1
 c18: K_a0_a5 + K_a5_a0 = 1
 c19: K_a0_a6 + K_a6_a0 = 1
 c20: K_a0_a6 + K_a6_a0 = 1
 c21: K_a0_a8 + K_a8_a0 = 1
 c22: K_a0_a8 + K_a8_a0 = 1
 c23: K_a0_a9 + K_a9_a0 = 1
 c24: K_a0_a9 + K_a9_a0 = 1
 c25: K_a1_a2 + K_a2_a1 = 1
 c26: K_a1_a2 + K_a2_a1 = 1
 c27: K_a1_a3 + K_a3_a1 = 1
 c28: K_a1_a3 + K_a3_a1 = 1
 c29: K_a1_a4 + K_a4_a1 = 1
 c30: K_a1_a4 + K_a4_a1 = 1
 c31: K_a1_a5 + K_a5_a1 = 1
 c32: K_a1_a5 + K_a5_a1 = 1
 c33: K_a1_a6 + K_a6_a1 = 1
 c34: K_a1_a6 + K_a6_a1 = 1
 c35: K_a1_a7 + K_a7_a1 = 1
 c36: K_a1_a7 + K_a7_a1 = 1
 c37: K_a1_a8 + K_a8_a1 = 1
 c38: K_a1_a8 + K_a8_a1 = 1
 c39: K_a1_a9 + K_a9_a1 = 1
 c40: K_a1_a9 + K_a9_a1 = 1
 c41: K_a2_a4 + K_a4_a2 = 1
 c42: K_a2_a4 + K_a4_a2 = 1
 c43: K_a2_a5 + K_a5_a2 = 1
 c44: K_a2_a5 + K_a5_a2 = 1
 c45: K_a2_a6 + K_a6_a2 = 1
 c46: K_a2_a6 + K_a6_a2 = 1
 c47: K_a2_a8 + K_a8_a2 = 1
 c48: K_a2_a8 + K_a8_a2 = 1
 c49: K_a2_a9 + K_a9_a2 = 1
 c50: K_a2_a9 + K_a9_a2 = 1
 c51: K_a3_a4 + K_a4_a3 = 1
 c52: K_a3_a4 + K_a4_a3 = 1
 c53: K_a3_a5 + K_a5_a3 = 1
 c54: K_a3_a5 + K_a5_a3 = 1
 c55: K_a3_a6 + K_a6_a3 = 1
 c56: K_a3_a6 + K_a6_a3 = 1
 c57: K_a3_a7 + K_a7_a3 = 1
 c58: K_a3_a7 + K_a7_a3 = 1
 c59: K_a3_a8 + K_a8_a3 = 1
 c60: K_a3_a8 + K_a8_a3 = 1
 c61: K_a3_a9 + K_a9_a3 = 1
 c62: K_a3_a9 + K_a9_a3 = 1
 c63: K_a4_a5 + K_a5_a4 = 1
 c64: K_a4_a5 + K_a5_a4 = 1
 c65: K_a4_a6 + K_a6_a4 = 1
 c66: K_a4_a6 + K_a6_a4 = 1
 c67: K_a4_a7 + K_a7_a4 = 1
 c68: K_a4_a7 + K_a7_a4 = 1
 c69: K_a4_a8 + K_a8_a4 = 1
 c70: K_a4_a8 + K_a8_a4 = 1
 c71: K_a4_a9 + K_a9_a4 = 1
 c72: K_a4_a9 + K_a9_a4 = 1
 c73: K_a5_a6 + K_a6_a5 = 1
 c74: K_a5_a6 + K_a6_a5 = 1
 c75: K_a5_a7 + K_a7_a5 = 1
 c76: K_a5_a7 + K_a7_a5 = 1
 c77: K_a5_a8 + K_a8_a5 = 1
 c78: K_a5_a8 + K_a8_a5 = 1
 c79: K_a5_a9 + K_a9_a5 = 1
 c80: K_a5_a9 + K_a9_a5 = 1
 c81: K_a6_a7 + K_a7_a6 = 1
 c82: K_a6_a7 + K_a7_a6 = 1
 c83: K_a6_a8 + K_a8_a6 = 1
 c84: K_a6_a8 + K_a8_a6 = 1
 c85: K_a6_a9 + K_a9_a6 = 1
 c86: K_a6_a9 + K_a9_a6 = 1
 c87: K_a7_a8 + K_a8_a7 = 1
 c88: K_a7_a8 + K_a8_a7 = 1
 c89: K_a7_a9 + K_a9_a7 = 1
 c90: K_a7_a9 + K_a9_a7 = 1
 c91: K_a8_a9 + K_a9_a8 = 1
 c92: K_a8_a9 + K_a9_a8 = 1
 c93: z <= 99999999989999992832
 c94: - 1193 m_a0_proc_0 + w_a4 - w_a0 >= -1193.925067992122
 c95: K_a0_a1 - 1193 m_a0_proc_0 - 1193 m_a1_proc_0 + w_a1 - w_a0 >= 
      -2385.925067992122
 c96: K_a0_a2 - 1193 m_a0_proc_0 - 1193 m_a2_proc_0 + w_a2 - w_a0 >= 
      -2385.925067992122
 c97: K_a0_a4 - 1193 m_a0_proc_0 - 1193 m_a4_proc_0 + w_a4 - w_a0 >= 
      -2385.925067992122
 c98: K_a0_a5 - 1193 m_a0_proc_0 - 1193 m_a5_proc_0 + w_a5 - w_a0 >= 
      -2385.925067992122
 c99: K_a0_a6 - 1193 m_a0_proc_0 - 1193 m_a6_proc_0 + w_a6 - w_a0 >= 
      -2385.925067992122
 c100: K_a0_a8 - 1193 m_a0_proc_0 - 1193 m_a8_proc_0 + w_a8 - w_a0 >= 
       -2385.925067992122
 c101: K_a0_a9 - 1193 m_a0_proc_0 - 1193 m_a9_proc_0 + w_a9 - w_a0 >= 
       -2385.925067992122
 c102: - 1193 m_a1_proc_0 + w_a0 - w_a1 >= -1192.895995498453
 c103: K_a1_a0 - 1193 m_a0_proc_0 - 1193 m_a1_proc_0 + w_a0 - w_a1 >= 
       -2385.895995498453
 c104: K_a1_a2 - 1193 m_a1_proc_0 - 1193 m_a2_proc_0 + w_a2 - w_a1 >= 
       -2385.895995498453
 c105: K_a1_a4 - 1193 m_a1_proc_0 - 1193 m_a4_proc_0 + w_a4 - w_a1 >= 
       -2385.895995498453
 c106: K_a1_a5 - 1193 m_a1_proc_0 - 1193 m_a5_proc_0 + w_a5 - w_a1 >= 
       -2385.895995498453
 c107: K_a1_a6 - 1193 m_a1_proc_0 - 1193 m_a6_proc_0 + w_a6 - w_a1 >= 
       -2385.895995498453
 c108: K_a1_a8 - 1193 m_a1_proc_0 - 1193 m_a8_proc_0 + w_a8 - w_a1 >= 
       -2385.895995498453
 c109: K_a1_a9 - 1193 m_a1_proc_0 - 1193 m_a9_proc_0 + w_a9 - w_a1 >= 
       -2385.895995498453
 c110: - 1193 m_a1_proc_1 + w_a0 - w_a1 >= -1192.892994466848
 c111: K_a1_a3 - 1193 m_a1_proc_1 - 1193 m_a3_proc_1 + w_a3 - w_a1 >= 
       -2385.892994466848
 c112: K_a1_a4 - 1193 m_a1_proc_1 - 1193 m_a4_proc_1 + w_a4 - w_a1 >= 
       -2385.892994466848
 c113: K_a1_a5 - 1193 m_a1_proc_1 - 1193 m_a5_proc_1 + w_a5 - w_a1 >= 
       -2385.892994466848
 c114: K_a1_a6 - 1193 m_a1_proc_1 - 1193 m_a6_proc_1 + w_a6 - w_a1 >= 
       -2385.892994466848
 c115: K_a1_a7 - 1193 m_a1_proc_1 - 1193 m_a7_proc_1 + w_a7 - w_a1 >= 
       -2385.892994466848
 c116: K_a1_a8 - 1193 m_a1_proc_1 - 1193 m_a8_proc_1 + w_a8 - w_a1 >= 
       -2385.892994466848
 c117: K_a1_a9 - 1193 m_a1_proc_1 - 1193 m_a9_proc_1 + w_a9 - w_a1 >= 
       -2385.892994466848
 c118: - 1193 m_a2_proc_0 + w_a1 - w_a2 >= -1193.914470599268
 c119: K_a2_a0 - 1193 m_a0_proc_0 - 1193 m_a2_proc_0 + w_a0 - w_a2 >= 
       -2385.914470599268
 c120: K_a2_a1 - 1193 m_a1_proc_0 - 1193 m_a2_proc_0 + w_a1 - w_a2 >= 
       -2385.914470599268
 c121: K_a2_a4 - 1193 m_a2_proc_0 - 1193 m_a4_proc_0 + w_a4 - w_a2 >= 
       -2385.914470599268
 c122: K_a2_a5 - 1193 m_a2_proc_0 - 1193 m_a5_proc_0 + w_a5 - w_a2 >= 
       -2385.914470599268
 c123: K_a2_a6 - 1193 m_a2_proc_0 - 1193 m_a6_proc_0 + w_a6 - w_a2 >= 
       -2385.914470599268
 c124: K_a2_a8 - 1193 m_a2_proc_0 - 1193 m_a8_proc_0 + w_a8 - w_a2 >= 
       -2385.914470599268
 c125: K_a2_a9 - 1193 m_a2_proc_0 - 1193 m_a9_proc_0 + w_a9 - w_a2 >= 
       -2385.914470599268
 c126: - 1193 m_a3_proc_1 + w_a2 - w_a3 >= -1192.894307418175
 c127: K_a3_a1 - 1193 m_a1_proc_1 - 1193 m_a3_proc_1 + w_a1 - w_a3 >= 
       -2385.894307418175
 c128: K_a3_a4 - 1193 m_a3_proc_1 - 1193 m_a4_proc_1 + w_a4 - w_a3 >= 
       -2385.894307418175
 c129: K_a3_a5 - 1193 m_a3_proc_1 - 1193 m_a5_proc_1 + w_a5 - w_a3 >= 
       -2385.894307418175
 c130: K_a3_a6 - 1193 m_a3_proc_1 - 1193 m_a6_proc_1 + w_a6 - w_a3 >= 
       -2385.894307418175
 c131: K_a3_a7 - 1193 m_a3_proc_1 - 1193 m_a7_proc_1 + w_a7 - w_a3 >= 
       -2385.894307418175
 c132: K_a3_a8 - 1193 m_a3_proc_1 - 1193 m_a8_proc_1 + w_a8 - w_a3 >= 
       -2385.894307418175
 c133: K_a3_a9 - 1193 m_a3_proc_1 - 1193 m_a9_proc_1 + w_a9 - w_a3 >= 
       -2385.894307418175
 c134: - 1193 m_a4_proc_0 + w_a8 - w_a4 >= -1192.915502203883
 c135: K_a4_a0 - 1193 m_a0_proc_0 - 1193 m_a4_proc_0 + w_a0 - w_a4 >= 
       -2385.915502203883
 c136: K_a4_a1 - 1193 m_a1_proc_0 - 1193 m_a4_proc_0 + w_a1 - w_a4 >= 
       -2385.915502203883
 c137: K_a4_a2 - 1193 m_a2_proc_0 - 1193 m_a4_proc_0 + w_a2 - w_a4 >= 
       -2385.915502203883
 c138: K_a4_a5 - 1193 m_a4_proc_0 - 1193 m_a5_proc_0 + w_a5 - w_a4 >= 
       -2385.915502203883
 c139: K_a4_a6 - 1193 m_a4_proc_0 - 1193 m_a6_proc_0 + w_a6 - w_a4 >= 
       -2385.915502203883
 c140: K_a4_a8 - 1193 m_a4_proc_0 - 1193 m_a8_proc_0 + w_a8 - w_a4 >= 
       -2385.915502203883
 c141: K_a4_a9 - 1193 m_a4_proc_0 - 1193 m_a9_proc_0 + w_a9 - w_a4 >= 
       -2385.915502203883
 c142: - 1193 m_a4_proc_1 + w_a8 - w_a4 >= -1192.891493951046
 c143: K_a4_a1 - 1193 m_a1_proc_1 - 1193 m_a4_proc_1 + w_a1 - w_a4 >= 
       -2385.891493951046
 c144: K_a4_a3 - 1193 m_a3_proc_1 - 1193 m_a4_proc_1 + w_a3 - w_a4 >= 
       -2385.891493951046
 c145: K_a4_a5 - 1193 m_a4_proc_1 - 1193 m_a5_proc_1 + w_a5 - w_a4 >= 
       -2385.891493951046
 c146: K_a4_a6 - 1193 m_a4_proc_1 - 1193 m_a6_proc_1 + w_a6 - w_a4 >= 
       -2385.891493951046
 c147: K_a4_a7 - 1193 m_a4_proc_1 - 1193 m_a7_proc_1 + w_a7 - w_a4 >= 
       -2385.891493951046
 c148: K_a4_a8 - 1193 m_a4_proc_1 - 1193 m_a8_proc_1 + w_a8 - w_a4 >= 
       -2385.891493951046
 c149: K_a4_a9 - 1193 m_a4_proc_1 - 1193 m_a9_proc_1 + w_a9 - w_a4 >= 
       -2385.891493951046
 c150: - 1193 m_a5_proc_0 + w_a2 - w_a5 >= -1193.912594954516
 c151: - 1193 m_a5_proc_0 + w_a7 - w_a5 >= -1193.912594954516
 c152: - 1193 m_a5_proc_0 + w_a6 - w_a5 >= -1193.912594954516
 c153: K_a5_a0 - 1193 m_a0_proc_0 - 1193 m_a5_proc_0 + w_a0 - w_a5 >= 
       -2385.912594954515
 c154: K_a5_a1 - 1193 m_a1_proc_0 - 1193 m_a5_proc_0 + w_a1 - w_a5 >= 
       -2385.912594954515
 c155: K_a5_a2 - 1193 m_a2_proc_0 - 1193 m_a5_proc_0 + w_a2 - w_a5 >= 
       -2385.912594954515
 c156: K_a5_a4 - 1193 m_a4_proc_0 - 1193 m_a5_proc_0 + w_a4 - w_a5 >= 
       -2385.912594954515
 c157: K_a5_a6 - 1193 m_a5_proc_0 - 1193 m_a6_proc_0 + w_a6 - w_a5 >= 
       -2385.912594954515
 c158: K_a5_a8 - 1193 m_a5_proc_0 - 1193 m_a8_proc_0 + w_a8 - w_a5 >= 
       -2385.912594954515
 c159: K_a5_a9 - 1193 m_a5_proc_0 - 1193 m_a9_proc_0 + w_a9 - w_a5 >= 
       -2385.912594954515
 c160: - 1193 m_a5_proc_1 + w_a2 - w_a5 >= -1193.890556128669
 c161: - 1193 m_a5_proc_1 + w_a7 - w_a5 >= -1193.890556128669
 c162: - 1193 m_a5_proc_1 + w_a6 - w_a5 >= -1193.890556128669
 c163: K_a5_a1 - 1193 m_a1_proc_1 - 1193 m_a5_proc_1 + w_a1 - w_a5 >= 
       -2385.890556128669
 c164: K_a5_a3 - 1193 m_a3_proc_1 - 1193 m_a5_proc_1 + w_a3 - w_a5 >= 
       -2385.890556128669
 c165: K_a5_a4 - 1193 m_a4_proc_1 - 1193 m_a5_proc_1 + w_a4 - w_a5 >= 
       -2385.890556128669
 c166: K_a5_a6 - 1193 m_a5_proc_1 - 1193 m_a6_proc_1 + w_a6 - w_a5 >= 
       -2385.890556128669
 c167: K_a5_a7 - 1193 m_a5_proc_1 - 1193 m_a7_proc_1 + w_a7 - w_a5 >= 
       -2385.890556128669
 c168: K_a5_a8 - 1193 m_a5_proc_1 - 1193 m_a8_proc_1 + w_a8 - w_a5 >= 
       -2385.890556128669
 c169: K_a5_a9 - 1193 m_a5_proc_1 - 1193 m_a9_proc_1 + w_a9 - w_a5 >= 
       -2385.890556128669
 c170: - 1193 m_a6_proc_0 + w_a2 - w_a6 >= -1192.960330113476
 c171: K_a6_a0 - 1193 m_a0_proc_0 - 1193 m_a6_proc_0 + w_a0 - w_a6 >= 
       -2385.960330113477
 c172: K_a6_a1 - 1193 m_a1_proc_0 - 1193 m_a6_proc_0 + w_a1 - w_a6 >= 
       -2385.960330113477
 c173: K_a6_a2 - 1193 m_a2_proc_0 - 1193 m_a6_proc_0 + w_a2 - w_a6 >= 
       -2385.960330113477
 c174: K_a6_a4 - 1193 m_a4_proc_0 - 1193 m_a6_proc_0 + w_a4 - w_a6 >= 
       -2385.960330113477
 c175: K_a6_a5 - 1193 m_a5_proc_0 - 1193 m_a6_proc_0 + w_a5 - w_a6 >= 
       -2385.960330113477
 c176: K_a6_a8 - 1193 m_a6_proc_0 - 1193 m_a8_proc_0 + w_a8 - w_a6 >= 
       -2385.960330113477
 c177: K_a6_a9 - 1193 m_a6_proc_0 - 1193 m_a9_proc_0 + w_a9 - w_a6 >= 
       -2385.960330113477
 c178: - 1193 m_a6_proc_1 + w_a2 - w_a6 >= -1192.917002719685
 c179: K_a6_a1 - 1193 m_a1_proc_1 - 1193 m_a6_proc_1 + w_a1 - w_a6 >= 
       -2385.917002719685
 c180: K_a6_a3 - 1193 m_a3_proc_1 - 1193 m_a6_proc_1 + w_a3 - w_a6 >= 
       -2385.917002719685
 c181: K_a6_a4 - 1193 m_a4_proc_1 - 1193 m_a6_proc_1 + w_a4 - w_a6 >= 
       -2385.917002719685
 c182: K_a6_a5 - 1193 m_a5_proc_1 - 1193 m_a6_proc_1 + w_a5 - w_a6 >= 
       -2385.917002719685
 c183: K_a6_a7 - 1193 m_a6_proc_1 - 1193 m_a7_proc_1 + w_a7 - w_a6 >= 
       -2385.917002719685
 c184: K_a6_a8 - 1193 m_a6_proc_1 - 1193 m_a8_proc_1 + w_a8 - w_a6 >= 
       -2385.917002719685
 c185: K_a6_a9 - 1193 m_a6_proc_1 - 1193 m_a9_proc_1 + w_a9 - w_a6 >= 
       -2385.917002719685
 c186: - 1193 m_a7_proc_1 + w_a9 - w_a7 >= -1192.894401200413
 c187: K_a7_a1 - 1193 m_a1_proc_1 - 1193 m_a7_proc_1 + w_a1 - w_a7 >= 
       -2385.894401200413
 c188: K_a7_a3 - 1193 m_a3_proc_1 - 1193 m_a7_proc_1 + w_a3 - w_a7 >= 
       -2385.894401200413
 c189: K_a7_a4 - 1193 m_a4_proc_1 - 1193 m_a7_proc_1 + w_a4 - w_a7 >= 
       -2385.894401200413
 c190: K_a7_a5 - 1193 m_a5_proc_1 - 1193 m_a7_proc_1 + w_a5 - w_a7 >= 
       -2385.894401200413
 c191: K_a7_a6 - 1193 m_a6_proc_1 - 1193 m_a7_proc_1 + w_a6 - w_a7 >= 
       -2385.894401200413
 c192: K_a7_a8 - 1193 m_a7_proc_1 - 1193 m_a8_proc_1 + w_a8 - w_a7 >= 
       -2385.894401200413
 c193: K_a7_a9 - 1193 m_a7_proc_1 - 1193 m_a9_proc_1 + w_a9 - w_a7 >= 
       -2385.894401200413
 c194: - 1193 m_a8_proc_0 + w_a6 - w_a8 >= -1193.891587733283
 c195: - 1193 m_a8_proc_0 + w_a5 - w_a8 >= -1192.891587733283
 c196: K_a8_a0 - 1193 m_a0_proc_0 - 1193 m_a8_proc_0 + w_a0 - w_a8 >= 
       -2385.891587733283
 c197: K_a8_a1 - 1193 m_a1_proc_0 - 1193 m_a8_proc_0 + w_a1 - w_a8 >= 
       -2385.891587733283
 c198: K_a8_a2 - 1193 m_a2_proc_0 - 1193 m_a8_proc_0 + w_a2 - w_a8 >= 
       -2385.891587733283
 c199: K_a8_a4 - 1193 m_a4_proc_0 - 1193 m_a8_proc_0 + w_a4 - w_a8 >= 
       -2385.891587733283
 c200: K_a8_a5 - 1193 m_a5_proc_0 - 1193 m_a8_proc_0 + w_a5 - w_a8 >= 
       -2385.891587733283
 c201: K_a8_a6 - 1193 m_a6_proc_0 - 1193 m_a8_proc_0 + w_a6 - w_a8 >= 
       -2385.891587733283
 c202: K_a8_a9 - 1193 m_a8_proc_0 - 1193 m_a9_proc_0 + w_a9 - w_a8 >= 
       -2385.891587733283
 c203: - 1193 m_a8_proc_1 + w_a6 - w_a8 >= -1193.921035355904
 c204: - 1193 m_a8_proc_1 + w_a5 - w_a8 >= -1192.921035355904
 c205: K_a8_a1 - 1193 m_a1_proc_1 - 1193 m_a8_proc_1 + w_a1 - w_a8 >= 
       -2385.921035355904
 c206: K_a8_a3 - 1193 m_a3_proc_1 - 1193 m_a8_proc_1 + w_a3 - w_a8 >= 
       -2385.921035355904
 c207: K_a8_a4 - 1193 m_a4_proc_1 - 1193 m_a8_proc_1 + w_a4 - w_a8 >= 
       -2385.921035355904
 c208: K_a8_a5 - 1193 m_a5_proc_1 - 1193 m_a8_proc_1 + w_a5 - w_a8 >= 
       -2385.921035355904
 c209: K_a8_a6 - 1193 m_a6_proc_1 - 1193 m_a8_proc_1 + w_a6 - w_a8 >= 
       -2385.921035355904
 c210: K_a8_a7 - 1193 m_a7_proc_1 - 1193 m_a8_proc_1 + w_a7 - w_a8 >= 
       -2385.921035355904
 c211: K_a8_a9 - 1193 m_a8_proc_1 - 1193 m_a9_proc_1 + w_a9 - w_a8 >= 
       -2385.921035355904
 c212: - 1193 m_a9_proc_0 + w_a4 - w_a9 >= -1192.888117790490
 c213: K_a9_a0 - 1193 m_a0_proc_0 - 1193 m_a9_proc_0 + w_a0 - w_a9 >= 
       -2385.888117790490
 c214: K_a9_a1 - 1193 m_a1_proc_0 - 1193 m_a9_proc_0 + w_a1 - w_a9 >= 
       -2385.888117790490
 c215: K_a9_a2 - 1193 m_a2_proc_0 - 1193 m_a9_proc_0 + w_a2 - w_a9 >= 
       -2385.888117790490
 c216: K_a9_a4 - 1193 m_a4_proc_0 - 1193 m_a9_proc_0 + w_a4 - w_a9 >= 
       -2385.888117790490
 c217: K_a9_a5 - 1193 m_a5_proc_0 - 1193 m_a9_proc_0 + w_a5 - w_a9 >= 
       -2385.888117790490
 c218: K_a9_a6 - 1193 m_a6_proc_0 - 1193 m_a9_proc_0 + w_a6 - w_a9 >= 
       -2385.888117790490
 c219: K_a9_a8 - 1193 m_a8_proc_0 - 1193 m_a9_proc_0 + w_a8 - w_a9 >= 
       -2385.888117790490
 c220: - 1193 m_a9_proc_1 + w_a4 - w_a9 >= -1192.923192347369
 c221: K_a9_a1 - 1193 m_a1_proc_1 - 1193 m_a9_proc_1 + w_a1 - w_a9 >= 
       -2385.923192347369
 c222: K_a9_a3 - 1193 m_a3_proc_1 - 1193 m_a9_proc_1 + w_a3 - w_a9 >= 
       -2385.923192347369
 c223: K_a9_a4 - 1193 m_a4_proc_1 - 1193 m_a9_proc_1 + w_a4 - w_a9 >= 
       -2385.923192347369
 c224: K_a9_a5 - 1193 m_a5_proc_1 - 1193 m_a9_proc_1 + w_a5 - w_a9 >= 
       -2385.923192347369
 c225: K_a9_a6 - 1193 m_a6_proc_1 - 1193 m_a9_proc_1 + w_a6 - w_a9 >= 
       -2385.923192347369
 c226: K_a9_a7 - 1193 m_a7_proc_1 - 1193 m_a9_proc_1 + w_a7 - w_a9 >= 
       -2385.923192347369
 c227: K_a9_a8 - 1193 m_a8_proc_1 - 1193 m_a9_proc_1 + w_a8 - w_a9 >= 
       -2385.923192347369
 c228: z - 0.000152625153 K_a3_a7 - 0.000152625153 K_a5_a3
       + 0.364163614164 m_a3_proc_1 - 0.039072039072 m_a4_proc_0
       - 0.178113553114 m_a5_proc_0 + 0.182081807082 m_a5_proc_1
       + 0.182081807082 m_a7_proc_1 - 0.047924297924 m_a8_proc_1 <= 
       0.728327228327
 c229: z - 0.000143430866 K_a0_a5 - 0.000031735784 K_a4_a2
       - 0.000111695083 K_a8_a2 + 0.171113023523 m_a0_proc_0
       + 0.171113023523 m_a2_proc_0 + 0.037860789993 m_a4_proc_0
       + 0.171113023523 m_a5_proc_0 + 0.133252233530 m_a8_proc_0
       - 0.053643144005 m_a9_proc_1 <= 0.684738955823
 c230: z - 0.000112930548 K_a1_a8 - 0.000112930548 K_a2_a0
       - 0.000112930548 K_a4_a1 - 0.000112930548 K_a9_a3
       + 0.134726143422 m_a0_proc_0 - 0.128853754941 m_a1_proc_0
       + 0.269452286844 m_a1_proc_1 + 0.134726143422 m_a2_proc_0
       + 0.134726143422 m_a3_proc_1 - 0.130660643704 m_a4_proc_0
       + 0.134726143422 m_a4_proc_1 + 0.134726143422 m_a8_proc_1
       - 0.092490118577 m_a9_proc_0 + 0.134726143422 m_a9_proc_1 <= 
       1.078035008470
 c231: z - 0.000116292592 K_a2_a0 - 0.000116292592 K_a6_a3
       - 0.000116292592 K_a9_a6 + 0.138737062449 m_a0_proc_0
       + 0.138737062449 m_a2_proc_0 + 0.138737062449 m_a3_proc_1
       - 0.029770903593 m_a4_proc_0 - 0.102918944063 m_a6_proc_0
       + 0.277474124898 m_a6_proc_1 - 0.095243632981 m_a9_proc_0
       + 0.138737062449 m_a9_proc_1 <= 0.832654959879
 c232: z <= 0.000216450216
 c233: z <= 0.000216450216
 c234: z <= 0.000216450216
 c235: z <= 0.000216450216
 c236: z <= 0.000216450216
 c237: z <= 0.000216450216
 c238: z <= 0.000216450216
 c239: z <= 0.000216450216
 c240: z <= 0.000216450216
 c241: z <= 0.000216450216
 c242: z <= 0.000216450216
 c243: z <= 0.000216450216
 c244: z <= 0.000216450216
 c245: z <= 0.000216450216
 c246: z <= 0.000216450216
 c247: z <= 0.000216450216
 c248: z <= 0.000216450216
 c249: z <= 0.000216450216
 c250: z <= 0.000216450216
 c251: z <= 0.000216450216
 c252: z <= 0.000216450216
 c253: z <= 0.000216450216

Bounds
 -inf <= K_a0_a1 <= 1000000000
 -inf <= K_a0_a2 <= 1000000000
 -inf <= K_a0_a3 <= 1000000000
 -inf <= K_a0_a4 <= 1000000000
 -inf <= K_a0_a5 <= 1000000000
 -inf <= K_a0_a6 <= 1000000000
 -inf <= K_a0_a7 <= 1000000000
 -inf <= K_a0_a8 <= 1000000000
 -inf <= K_a0_a9 <= 1000000000
 -inf <= K_a1_a0 <= 1000000000
 -inf <= K_a1_a2 <= 1000000000
 -inf <= K_a1_a3 <= 1000000000
 -inf <= K_a1_a4 <= 1000000000
 -inf <= K_a1_a5 <= 1000000000
 -inf <= K_a1_a6 <= 1000000000
 -inf <= K_a1_a7 <= 1000000000
 -inf <= K_a1_a8 <= 1000000000
 -inf <= K_a1_a9 <= 1000000000
 -inf <= K_a2_a0 <= 1000000000
 -inf <= K_a2_a1 <= 1000000000
 -inf <= K_a2_a3 <= 1000000000
 -inf <= K_a2_a4 <= 1000000000
 -inf <= K_a2_a5 <= 1000000000
 -inf <= K_a2_a6 <= 1000000000
 -inf <= K_a2_a7 <= 1000000000
 -inf <= K_a2_a8 <= 1000000000
 -inf <= K_a2_a9 <= 1000000000
 -inf <= K_a3_a0 <= 1000000000
 -inf <= K_a3_a1 <= 1000000000
 -inf <= K_a3_a2 <= 1000000000
 -inf <= K_a3_a4 <= 1000000000
 -inf <= K_a3_a5 <= 1000000000
 -inf <= K_a3_a6 <= 1000000000
 -inf <= K_a3_a7 <= 1000000000
 -inf <= K_a3_a8 <= 1000000000
 -inf <= K_a3_a9 <= 1000000000
 -inf <= K_a4_a0 <= 1000000000
 -inf <= K_a4_a1 <= 1000000000
 -inf <= K_a4_a2 <= 1000000000
 -inf <= K_a4_a3 <= 1000000000
 -inf <= K_a4_a5 <= 1000000000
 -inf <= K_a4_a6 <= 1000000000
 -inf <= K_a4_a7 <= 1000000000
 -inf <= K_a4_a8 <= 1000000000
 -inf <= K_a4_a9 <= 1000000000
 -inf <= K_a5_a0 <= 1000000000
 -inf <= K_a5_a1 <= 1000000000
 -inf <= K_a5_a2 <= 1000000000
 -inf <= K_a5_a3 <= 1000000000
 -inf <= K_a5_a4 <= 1000000000
 -inf <= K_a5_a6 <= 1000000000
 -inf <= K_a5_a7 <= 1000000000
 -inf <= K_a5_a8 <= 1000000000
 -inf <= K_a5_a9 <= 1000000000
 -inf <= K_a6_a0 <= 1000000000
 -inf <= K_a6_a1 <= 1000000000
 -inf <= K_a6_a2 <= 1000000000
 -inf <= K_a6_a3 <= 1000000000
 -inf <= K_a6_a4 <= 1000000000
 -inf <= K_a6_a5 <= 1000000000
 -inf <= K_a6_a7 <= 1000000000
 -inf <= K_a6_a8 <= 1000000000
 -inf <= K_a6_a9 <= 1000000000
 -inf <= K_a7_a0 <= 1000000000
 -inf <= K_a7_a1 <= 1000000000
 -inf <= K_a7_a2 <= 1000000000
 -inf <= K_a7_a3 <= 1000000000
 -inf <= K_a7_a4 <= 1000000000
 -inf <= K_a7_a5 <= 1000000000
 -inf <= K_a7_a6 <= 1000000000
 -inf <= K_a7_a8 <= 1000000000
 -inf <= K_a7_a9 <= 1000000000
 -inf <= K_a8_a0 <= 1000000000
 -inf <= K_a8_a1 <= 1000000000
 -inf <= K_a8_a2 <= 1000000000
 -inf <= K_a8_a3 <= 1000000000
 -inf <= K_a8_a4 <= 1000000000
 -inf <= K_a8_a5 <= 1000000000
 -inf <= K_a8_a6 <= 1000000000
 -inf <= K_a8_a7 <= 1000000000
 -inf <= K_a8_a9 <= 1000000000
 -inf <= K_a9_a0 <= 1000000000
 -inf <= K_a9_a1 <= 1000000000
 -inf <= K_a9_a2 <= 1000000000
 -inf <= K_a9_a3 <= 1000000000
 -inf <= K_a9_a4 <= 1000000000
 -inf <= K_a9_a5 <= 1000000000
 -inf <= K_a9_a6 <= 1000000000
 -inf <= K_a9_a7 <= 1000000000
 -inf <= K_a9_a8 <= 1000000000
 0 <= m_a0_proc_0 <= 1
 0 <= m_a1_proc_0 <= 1
 0 <= m_a1_proc_1 <= 1
 0 <= m_a2_proc_0 <= 1
 0 <= m_a3_proc_1 <= 1
 0 <= m_a4_proc_0 <= 1
 0 <= m_a4_proc_1 <= 1
 0 <= m_a5_proc_0 <= 1
 0 <= m_a5_proc_1 <= 1
 0 <= m_a6_proc_0 <= 1
 0 <= m_a6_proc_1 <= 1
 0 <= m_a7_proc_1 <= 1
 0 <= m_a8_proc_0 <= 1
 0 <= m_a8_proc_1 <= 1
 0 <= m_a9_proc_0 <= 1
 0 <= m_a9_proc_1 <= 1

Binaries
 m_a0_proc_0 m_a1_proc_0 m_a1_proc_1 m_a2_proc_0 m_a3_proc_1 m_a4_proc_0
 m_a4_proc_1 m_a5_proc_0 m_a5_proc_1 m_a6_proc_0 m_a6_proc_1 m_a7_proc_1
 m_a8_proc_0 m_a8_proc_1 m_a9_proc_0 m_a9_proc_1

Generals
 K_a0_a1 K_a0_a2 K_a0_a3 K_a0_a4 K_a0_a5 K_a0_a6 K_a0_a7 K_a0_a8 K_a0_a9 K_a1_a0
 K_a1_a2 K_a1_a3 K_a1_a4 K_a1_a5 K_a1_a6 K_a1_a7 K_a1_a8 K_a1_a9 K_a2_a0 K_a2_a1
 K_a2_a3 K_a2_a4 K_a2_a5 K_a2_a6 K_a2_a7 K_a2_a8 K_a2_a9 K_a3_a0 K_a3_a1 K_a3_a2
 K_a3_a4 K_a3_a5 K_a3_a6 K_a3_a7 K_a3_a8 K_a3_a9 K_a4_a0 K_a4_a1 K_a4_a2 K_a4_a3
 K_a4_a5 K_a4_a6 K_a4_a7 K_a4_a8 K_a4_a9 K_a5_a0 K_a5_a1 K_a5_a2 K_a5_a3 K_a5_a4
 K_a5_a6 K_a5_a7 K_a5_a8 K_a5_a9 K_a6_a0 K_a6_a1 K_a6_a2 K_a6_a3 K_a6_a4 K_a6_a5
 K_a6_a7 K_a6_a8 K_a6_a9 K_a7_a0 K_a7_a1 K_a7_a2 K_a7_a3 K_a7_a4 K_a7_a5 K_a7_a6
 K_a7_a8 K_a7_a9 K_a8_a0 K_a8_a1 K_a8_a2 K_a8_a3 K_a8_a4 K_a8_a5 K_a8_a6 K_a8_a7
 K_a8_a9 K_a9_a0 K_a9_a1 K_a9_a2 K_a9_a3 K_a9_a4 K_a9_a5 K_a9_a6 K_a9_a7 K_a9_a8
End
