benchmark/results/graph__10-1000-0.10-02_17/error_log/graph__10-1000-0.10-02_17_Quinton_Benders_master_ERRORLOG.txt
solution for: Quinton Benders_master
objective: 0.00021645
status: OPTIMAL_SOLUTION(2)
K_a0_a1=1195
K_a0_a2=1
K_a0_a3=1000000000
K_a0_a4=1194
K_a0_a5=1
K_a0_a6=2
K_a0_a7=1000000000
K_a0_a8=1194
K_a0_a9=1195
K_a1_a0=-1194
K_a1_a2=1193
K_a1_a3=999998806
K_a1_a4=-1
K_a1_a5=1192
K_a1_a6=1193
K_a1_a8=-1
K_a2_a1=-1192
K_a2_a3=1000000000
K_a2_a4=-1193
K_a2_a6=1
K_a2_a7=1000000000
K_a2_a8=-1193
K_a2_a9=1194
K_a3_a0=1000000000
K_a3_a1=-999998805
K_a3_a2=1000000000
K_a3_a4=-999998806
K_a3_a5=-999999999
K_a3_a6=-999999998
K_a3_a7=-999998805
K_a3_a8=-999998806
K_a3_a9=-999998805
K_a4_a0=-1193
K_a4_a1=2
K_a4_a2=1194
K_a4_a3=999998807
K_a4_a5=1193
K_a4_a6=1194
K_a4_a7=1
K_a4_a9=1
K_a5_a1=-1191
K_a5_a2=1
K_a5_a3=1000000000
K_a5_a4=-1192
K_a5_a6=1
K_a5_a7=1194
K_a5_a8=1193
K_a5_a9=1194
K_a6_a0=-1
K_a6_a1=-1192
K_a6_a3=999999999
K_a6_a4=-1193
K_a6_a7=1194
K_a6_a8=1193
K_a6_a9=-1192
K_a7_a0=1000000000
K_a7_a1=1
K_a7_a2=1000000000
K_a7_a3=999998806
K_a7_a5=-1193
K_a7_a6=-1193
K_a8_a0=-1193
K_a8_a1=2
K_a8_a2=1194
K_a8_a3=999998807
K_a8_a4=1
K_a8_a5=-1192
K_a8_a6=-1192
K_a8_a7=1
K_a8_a9=1
K_a9_a0=-1194
K_a9_a1=1
K_a9_a2=-1193
K_a9_a3=999998806
K_a9_a5=-1193
K_a9_a6=1193
K_a9_a7=1
m_a0_proc_0=1
m_a1_proc_1=1
m_a2_proc_0=1
m_a3_proc_1=1
m_a4_proc_1=1
m_a5_proc_0=1
m_a6_proc_0=1
m_a7_proc_1=1
m_a8_proc_1=1
m_a9_proc_1=1
z=0.000
w_a0=999998806.705
w_a1=999998805.106
w_a2=999998805.780
w_a4=999998806.213
w_a5=999998806.400
w_a6=999998805.593
w_a7=999998805.488
w_a8=999998806.321
w_a9=999998805.593
